\ENCODING=ISO-8859-1
\Problem name: ilog.cplex

Maximize
 obj: 200 x1 + 3 x2 + 20 x3 + 50 x4 + 70 x5 + 20 x6 + 5 x7 + 10 x8 + 200 x9
      + 150 x10 + 18 x11 + 8 x12 + 300 x13 + 185 x14
Subject To
 c1:  6 x1 + 2 x2 + 3 x3 + x7 + 4 x9 + 5 x12 <= 10
 c2:  3 x2 + 5 x3 + 5 x5 + 8 x7 + 5 x9 + 8 x10 + 7 x12 + x13 + 4 x14 <= 12
 c3:  8 x5 + x6 + 4 x10 + 2 x11 + 4 x13 + 5 x14 <= 14
 c4:  8 x6 + 5 x8 + 7 x11 + x13 + 3 x14 <= 14
 c5:  10 x4 + 4 x6 + x13 + 3 x14 <= 14
 c6:  x4 + x5 <= 1
 c7:  x8 + x11 <= 1
 c8:  x9 + x14 <= 1
 c9:  - x2 + x11 <= 0
 c10: - x3 + x4 <= 0
 c11: - x3 + x5 <= 0
 c12: - x3 + x6 <= 0
 c13: - x3 + x7 <= 0
 c14: x1  = 0
 c15: x2  = 1
 c16: x3  = 1
 c17: x4  = 1
 c18: x6  = 0
 c19: x10  = 0
Bounds
 0 <= x1 <= 1
 0 <= x2 <= 1
 0 <= x3 <= 1
 0 <= x4 <= 1
 0 <= x5 <= 1
 0 <= x6 <= 1
 0 <= x7 <= 1
 0 <= x8 <= 1
 0 <= x9 <= 1
 0 <= x10 <= 1
 0 <= x11 <= 1
 0 <= x12 <= 1
 0 <= x13 <= 1
 0 <= x14 <= 1
End
